(declare-sort sk 0)
(declare-datatypes () ((list (nil) (cons (head sk) (tail list)))))
(declare-datatypes () ((Nat (Z) (S (p Nat)))))
(declare-fun length (list) Nat)
(declare-fun half (Nat) Nat)
(declare-fun append (list list) list)
(assert (= (length nil) Z))
(assert
  (forall ((y sk) (xs list))
    (= (length (cons y xs)) (S (length xs)))))
(assert (= (half Z) Z))
(assert (= (half (S Z)) Z))
(assert (forall ((z Nat)) (= (half (S (S z))) (S (half z)))))
(assert (forall ((y list)) (= (append nil y) y)))
(assert
  (forall ((y list) (z sk) (xs list))
    (= (append (cons z xs) y) (cons z (append xs y)))))
(assert-not
  (forall ((x list) (y list))
    (= (half (length (append x y))) (half (length (append y x))))))
(check-sat)
